bitwise/bitwise_task1/model/design_smt2.smt2
; SMT-LIBv2 description generated by Yosys 0.33+67 (git sha1 076c5ceb7, clang 10.0.0-4ubuntu1 -fPIC -Os)
; yosys-smt2-module bitwise
(declare-sort |bitwise_s| 0)
(declare-fun |bitwise_is| (|bitwise_s|) Bool)
(declare-fun |bitwise#0| (|bitwise_s|) Bool) ; \reset
; yosys-smt2-input reset 1
; yosys-smt2-wire reset 1
; yosys-smt2-witness {"offset": 0, "path": ["\\reset"], "smtname": "reset", "smtoffset": 0, "type": "input", "width": 1}
(define-fun |bitwise_n reset| ((state |bitwise_s|)) Bool (|bitwise#0| state))
; yosys-smt2-anyinit bitwise#1 8 bitwise.v:19.2-31.6
; yosys-smt2-witness {"offset": 0, "path": ["\\q"], "smtname": 1, "smtoffset": 0, "type": "init", "width": 8}
(declare-fun |bitwise#1| (|bitwise_s|) (_ BitVec 8)) ; \q
; yosys-smt2-output q 8
; yosys-smt2-register q 8
; yosys-smt2-wire q 8
(define-fun |bitwise_n q| ((state |bitwise_s|)) (_ BitVec 8) (|bitwise#1| state))
(declare-fun |bitwise#2| (|bitwise_s|) Bool) ; \load_en
; yosys-smt2-input load_en 1
; yosys-smt2-wire load_en 1
; yosys-smt2-witness {"offset": 0, "path": ["\\load_en"], "smtname": "load_en", "smtoffset": 0, "type": "input", "width": 1}
(define-fun |bitwise_n load_en| ((state |bitwise_s|)) Bool (|bitwise#2| state))
(declare-fun |bitwise#3| (|bitwise_s|) (_ BitVec 8)) ; \load
; yosys-smt2-input load 8
; yosys-smt2-wire load 8
; yosys-smt2-witness {"offset": 0, "path": ["\\load"], "smtname": "load", "smtoffset": 0, "type": "input", "width": 8}
(define-fun |bitwise_n load| ((state |bitwise_s|)) (_ BitVec 8) (|bitwise#3| state))
(declare-fun |bitwise#4| (|bitwise_s|) Bool) ; \en
; yosys-smt2-input en 1
; yosys-smt2-wire en 1
; yosys-smt2-witness {"offset": 0, "path": ["\\en"], "smtname": "en", "smtoffset": 0, "type": "input", "width": 1}
(define-fun |bitwise_n en| ((state |bitwise_s|)) Bool (|bitwise#4| state))
(declare-fun |bitwise#5| (|bitwise_s|) Bool) ; \d
; yosys-smt2-input d 1
; yosys-smt2-wire d 1
; yosys-smt2-witness {"offset": 0, "path": ["\\d"], "smtname": "d", "smtoffset": 0, "type": "input", "width": 1}
(define-fun |bitwise_n d| ((state |bitwise_s|)) Bool (|bitwise#5| state))
(declare-fun |bitwise#6| (|bitwise_s|) Bool) ; \clk
; yosys-smt2-input clk 1
; yosys-smt2-wire clk 1
; yosys-smt2-clock clk posedge
; yosys-smt2-witness {"offset": 0, "path": ["\\clk"], "smtname": "clk", "smtoffset": 0, "type": "posedge", "width": 1}
; yosys-smt2-witness {"offset": 0, "path": ["\\clk"], "smtname": "clk", "smtoffset": 0, "type": "input", "width": 1}
(define-fun |bitwise_n clk| ((state |bitwise_s|)) Bool (|bitwise#6| state))
; yosys-smt2-anyseq bitwise#7 1 $auto$setundef.cc:533:execute$125
; yosys-smt2-witness {"offset": 0, "path": ["\\_witness_", "\\anyseq_auto_setundef_cc_533_execute_125"], "smtname": 7, "smtoffset": 0, "type": "seq", "width": 1}
(declare-fun |bitwise#7| (|bitwise_s|) (_ BitVec 1)) ; \_witness_.anyseq_auto_setundef_cc_533_execute_125
; yosys-smt2-wire _witness_.anyseq_auto_setundef_cc_533_execute_125 1
(define-fun |bitwise_n _witness_.anyseq_auto_setundef_cc_533_execute_125| ((state |bitwise_s|)) Bool (= ((_ extract 0 0) (|bitwise#7| state)) #b1))
; yosys-smt2-anyseq bitwise#8 1 $auto$setundef.cc:533:execute$123
; yosys-smt2-witness {"offset": 0, "path": ["\\_witness_", "\\anyseq_auto_setundef_cc_533_execute_123"], "smtname": 8, "smtoffset": 0, "type": "seq", "width": 1}
(declare-fun |bitwise#8| (|bitwise_s|) (_ BitVec 1)) ; \_witness_.anyseq_auto_setundef_cc_533_execute_123
; yosys-smt2-wire _witness_.anyseq_auto_setundef_cc_533_execute_123 1
(define-fun |bitwise_n _witness_.anyseq_auto_setundef_cc_533_execute_123| ((state |bitwise_s|)) Bool (= ((_ extract 0 0) (|bitwise#8| state)) #b1))
; yosys-smt2-anyseq bitwise#9 1 $auto$setundef.cc:533:execute$121
; yosys-smt2-witness {"offset": 0, "path": ["\\_witness_", "\\anyseq_auto_setundef_cc_533_execute_121"], "smtname": 9, "smtoffset": 0, "type": "seq", "width": 1}
(declare-fun |bitwise#9| (|bitwise_s|) (_ BitVec 1)) ; \_witness_.anyseq_auto_setundef_cc_533_execute_121
; yosys-smt2-wire _witness_.anyseq_auto_setundef_cc_533_execute_121 1
(define-fun |bitwise_n _witness_.anyseq_auto_setundef_cc_533_execute_121| ((state |bitwise_s|)) Bool (= ((_ extract 0 0) (|bitwise#9| state)) #b1))
; yosys-smt2-anyseq bitwise#10 1 $auto$setundef.cc:533:execute$119
; yosys-smt2-witness {"offset": 0, "path": ["\\_witness_", "\\anyseq_auto_setundef_cc_533_execute_119"], "smtname": 10, "smtoffset": 0, "type": "seq", "width": 1}
(declare-fun |bitwise#10| (|bitwise_s|) (_ BitVec 1)) ; \_witness_.anyseq_auto_setundef_cc_533_execute_119
; yosys-smt2-wire _witness_.anyseq_auto_setundef_cc_533_execute_119 1
(define-fun |bitwise_n _witness_.anyseq_auto_setundef_cc_533_execute_119| ((state |bitwise_s|)) Bool (= ((_ extract 0 0) (|bitwise#10| state)) #b1))
; yosys-smt2-anyseq bitwise#11 1 $auto$setundef.cc:533:execute$117
; yosys-smt2-witness {"offset": 0, "path": ["\\_witness_", "\\anyseq_auto_setundef_cc_533_execute_117"], "smtname": 11, "smtoffset": 0, "type": "seq", "width": 1}
(declare-fun |bitwise#11| (|bitwise_s|) (_ BitVec 1)) ; \_witness_.anyseq_auto_setundef_cc_533_execute_117
; yosys-smt2-wire _witness_.anyseq_auto_setundef_cc_533_execute_117 1
(define-fun |bitwise_n _witness_.anyseq_auto_setundef_cc_533_execute_117| ((state |bitwise_s|)) Bool (= ((_ extract 0 0) (|bitwise#11| state)) #b1))
; yosys-smt2-anyseq bitwise#12 1 $auto$setundef.cc:533:execute$115
; yosys-smt2-witness {"offset": 0, "path": ["\\_witness_", "\\anyseq_auto_setundef_cc_533_execute_115"], "smtname": 12, "smtoffset": 0, "type": "seq", "width": 1}
(declare-fun |bitwise#12| (|bitwise_s|) (_ BitVec 1)) ; \_witness_.anyseq_auto_setundef_cc_533_execute_115
; yosys-smt2-wire _witness_.anyseq_auto_setundef_cc_533_execute_115 1
(define-fun |bitwise_n _witness_.anyseq_auto_setundef_cc_533_execute_115| ((state |bitwise_s|)) Bool (= ((_ extract 0 0) (|bitwise#12| state)) #b1))
; yosys-smt2-anyseq bitwise#13 1 $auto$setundef.cc:533:execute$113
; yosys-smt2-witness {"offset": 0, "path": ["\\_witness_", "\\anyseq_auto_setundef_cc_533_execute_113"], "smtname": 13, "smtoffset": 0, "type": "seq", "width": 1}
(declare-fun |bitwise#13| (|bitwise_s|) (_ BitVec 1)) ; \_witness_.anyseq_auto_setundef_cc_533_execute_113
; yosys-smt2-wire _witness_.anyseq_auto_setundef_cc_533_execute_113 1
(define-fun |bitwise_n _witness_.anyseq_auto_setundef_cc_533_execute_113| ((state |bitwise_s|)) Bool (= ((_ extract 0 0) (|bitwise#13| state)) #b1))
; yosys-smt2-anyseq bitwise#14 1 $auto$setundef.cc:533:execute$111
; yosys-smt2-witness {"offset": 0, "path": ["\\_witness_", "\\anyseq_auto_setundef_cc_533_execute_111"], "smtname": 14, "smtoffset": 0, "type": "seq", "width": 1}
(declare-fun |bitwise#14| (|bitwise_s|) (_ BitVec 1)) ; \_witness_.anyseq_auto_setundef_cc_533_execute_111
; yosys-smt2-wire _witness_.anyseq_auto_setundef_cc_533_execute_111 1
(define-fun |bitwise_n _witness_.anyseq_auto_setundef_cc_533_execute_111| ((state |bitwise_s|)) Bool (= ((_ extract 0 0) (|bitwise#14| state)) #b1))
; yosys-smt2-anyseq bitwise#15 1 $auto$setundef.cc:533:execute$109
; yosys-smt2-witness {"offset": 0, "path": ["\\_witness_", "\\anyseq_auto_setundef_cc_533_execute_109"], "smtname": 15, "smtoffset": 0, "type": "seq", "width": 1}
(declare-fun |bitwise#15| (|bitwise_s|) (_ BitVec 1)) ; \_witness_.anyseq_auto_setundef_cc_533_execute_109
; yosys-smt2-wire _witness_.anyseq_auto_setundef_cc_533_execute_109 1
(define-fun |bitwise_n _witness_.anyseq_auto_setundef_cc_533_execute_109| ((state |bitwise_s|)) Bool (= ((_ extract 0 0) (|bitwise#15| state)) #b1))
; yosys-smt2-anyinit bitwise#16 1 bitwise.v:34.3-47.6
; yosys-smt2-witness {"offset": 0, "path": ["\\_witness_", "\\anyinit_procdff_98"], "smtname": 16, "smtoffset": 0, "type": "init", "width": 1}
(declare-fun |bitwise#16| (|bitwise_s|) (_ BitVec 1)) ; \_witness_.anyinit_procdff_98
; yosys-smt2-register _witness_.anyinit_procdff_98 1
; yosys-smt2-wire _witness_.anyinit_procdff_98 1
(define-fun |bitwise_n _witness_.anyinit_procdff_98| ((state |bitwise_s|)) Bool (= ((_ extract 0 0) (|bitwise#16| state)) #b1))
; yosys-smt2-anyinit bitwise#17 1 bitwise.v:34.3-47.6
; yosys-smt2-witness {"offset": 0, "path": ["\\_witness_", "\\anyinit_procdff_104"], "smtname": 17, "smtoffset": 0, "type": "init", "width": 1}
(declare-fun |bitwise#17| (|bitwise_s|) (_ BitVec 1)) ; \_witness_.anyinit_procdff_104
; yosys-smt2-register _witness_.anyinit_procdff_104 1
; yosys-smt2-wire _witness_.anyinit_procdff_104 1
(define-fun |bitwise_n _witness_.anyinit_procdff_104| ((state |bitwise_s|)) Bool (= ((_ extract 0 0) (|bitwise#17| state)) #b1))
; yosys-smt2-anyinit bitwise#18 1 bitwise.v:34.3-47.6
; yosys-smt2-witness {"offset": 0, "path": ["\\_witness_", "\\anyinit_procdff_102"], "smtname": 18, "smtoffset": 0, "type": "init", "width": 1}
(declare-fun |bitwise#18| (|bitwise_s|) (_ BitVec 1)) ; \_witness_.anyinit_procdff_102
; yosys-smt2-register _witness_.anyinit_procdff_102 1
; yosys-smt2-wire _witness_.anyinit_procdff_102 1
(define-fun |bitwise_n _witness_.anyinit_procdff_102| ((state |bitwise_s|)) Bool (= ((_ extract 0 0) (|bitwise#18| state)) #b1))
; yosys-smt2-anyinit bitwise#19 1 bitwise.v:34.3-47.6
; yosys-smt2-witness {"offset": 0, "path": ["\\_witness_", "\\anyinit_procdff_100"], "smtname": 19, "smtoffset": 0, "type": "init", "width": 1}
(declare-fun |bitwise#19| (|bitwise_s|) (_ BitVec 1)) ; \_witness_.anyinit_procdff_100
; yosys-smt2-register _witness_.anyinit_procdff_100 1
; yosys-smt2-wire _witness_.anyinit_procdff_100 1
(define-fun |bitwise_n _witness_.anyinit_procdff_100| ((state |bitwise_s|)) Bool (= ((_ extract 0 0) (|bitwise#19| state)) #b1))
; yosys-smt2-witness {"offset": 0, "path": ["$formal$bitwise.v:44$4_EN"], "smtname": 20, "smtoffset": 0, "type": "reg", "width": 1}
(declare-fun |bitwise#20| (|bitwise_s|) (_ BitVec 1)) ; $formal$bitwise.v:44$4_EN
; yosys-smt2-register $formal$bitwise.v:44$4_EN 1
(define-fun |bitwise_n $formal$bitwise.v:44$4_EN| ((state |bitwise_s|)) Bool (= ((_ extract 0 0) (|bitwise#20| state)) #b1))
; yosys-smt2-witness {"offset": 0, "path": ["$formal$bitwise.v:41$3_EN"], "smtname": 21, "smtoffset": 0, "type": "reg", "width": 1}
(declare-fun |bitwise#21| (|bitwise_s|) (_ BitVec 1)) ; $formal$bitwise.v:41$3_EN
; yosys-smt2-register $formal$bitwise.v:41$3_EN 1
(define-fun |bitwise_n $formal$bitwise.v:41$3_EN| ((state |bitwise_s|)) Bool (= ((_ extract 0 0) (|bitwise#21| state)) #b1))
; yosys-smt2-witness {"offset": 0, "path": ["$formal$bitwise.v:38$2_EN"], "smtname": 22, "smtoffset": 0, "type": "reg", "width": 1}
(declare-fun |bitwise#22| (|bitwise_s|) (_ BitVec 1)) ; $formal$bitwise.v:38$2_EN
; yosys-smt2-register $formal$bitwise.v:38$2_EN 1
(define-fun |bitwise_n $formal$bitwise.v:38$2_EN| ((state |bitwise_s|)) Bool (= ((_ extract 0 0) (|bitwise#22| state)) #b1))
; yosys-smt2-witness {"offset": 0, "path": ["$formal$bitwise.v:35$1_EN"], "smtname": 23, "smtoffset": 0, "type": "reg", "width": 1}
(declare-fun |bitwise#23| (|bitwise_s|) (_ BitVec 1)) ; $formal$bitwise.v:35$1_EN
; yosys-smt2-register $formal$bitwise.v:35$1_EN 1
(define-fun |bitwise_n $formal$bitwise.v:35$1_EN| ((state |bitwise_s|)) Bool (= ((_ extract 0 0) (|bitwise#23| state)) #b1))
(define-fun |bitwise#24| ((state |bitwise_s|)) (_ BitVec 1) (bvnot (ite (|bitwise#6| state) #b1 #b0))) ; $auto$rtlil.cc:2446:Not$128
; yosys-smt2-assume 0 $auto$formalff.cc:758:execute$129
(define-fun |bitwise_u 0| ((state |bitwise_s|)) Bool (or (= ((_ extract 0 0) (|bitwise#24| state)) #b1) (not true))) ; $auto$formalff.cc:758:execute$129
; yosys-smt2-assert 0 $assert$bitwise.v:44$26 bitwise.v:44.14-45.19
(define-fun |bitwise_a 0| ((state |bitwise_s|)) Bool (or (= ((_ extract 0 0) (|bitwise#17| state)) #b1) (not (= ((_ extract 0 0) (|bitwise#20| state)) #b1)))) ; $assert$bitwise.v:44$26
; yosys-smt2-assert 1 $assert$bitwise.v:41$25 bitwise.v:41.33-42.39
(define-fun |bitwise_a 1| ((state |bitwise_s|)) Bool (or (= ((_ extract 0 0) (|bitwise#18| state)) #b1) (not (= ((_ extract 0 0) (|bitwise#21| state)) #b1)))) ; $assert$bitwise.v:41$25
; yosys-smt2-assert 2 $assert$bitwise.v:38$24 bitwise.v:38.27-39.22
(define-fun |bitwise_a 2| ((state |bitwise_s|)) Bool (or (= ((_ extract 0 0) (|bitwise#19| state)) #b1) (not (= ((_ extract 0 0) (|bitwise#22| state)) #b1)))) ; $assert$bitwise.v:38$24
; yosys-smt2-assert 3 $assert$bitwise.v:35$23 bitwise.v:35.19-36.43
(define-fun |bitwise_a 3| ((state |bitwise_s|)) Bool (or (= ((_ extract 0 0) (|bitwise#16| state)) #b1) (not (= ((_ extract 0 0) (|bitwise#23| state)) #b1)))) ; $assert$bitwise.v:35$23
(define-fun |bitwise#25| ((state |bitwise_s|)) (_ BitVec 1) (ite (|bitwise#0| state) #b1 #b0)) ; $0$formal$bitwise.v:35$1_EN[0:0]$10
(define-fun |bitwise#26| ((state |bitwise_s|)) (_ BitVec 1) (ite (|bitwise#2| state) #b1 #b0)) ; $procmux$42_Y
(define-fun |bitwise#27| ((state |bitwise_s|)) (_ BitVec 1) (ite (|bitwise#0| state) #b0 (|bitwise#26| state))) ; $0$formal$bitwise.v:38$2_EN[0:0]$12
(define-fun |bitwise#28| ((state |bitwise_s|)) (_ BitVec 1) (bvnot (ite (|bitwise#2| state) #b1 #b0))) ; $not$bitwise.v:26$6_Y
(define-fun |bitwise#29| ((state |bitwise_s|)) (_ BitVec 1) (bvand (|bitwise#28| state) (ite (|bitwise#4| state) #b1 #b0))) ; $and$bitwise.v:41$20_Y
(define-fun |bitwise#30| ((state |bitwise_s|)) (_ BitVec 1) (ite (= ((_ extract 0 0) (|bitwise#29| state)) #b1) #b1 #b0)) ; $procmux$54_Y
(define-fun |bitwise#31| ((state |bitwise_s|)) (_ BitVec 1) (ite (|bitwise#2| state) #b0 (|bitwise#30| state))) ; $procmux$57_Y
(define-fun |bitwise#32| ((state |bitwise_s|)) (_ BitVec 1) (ite (|bitwise#0| state) #b0 (|bitwise#31| state))) ; $0$formal$bitwise.v:41$3_EN[0:0]$14
(define-fun |bitwise#33| ((state |bitwise_s|)) (_ BitVec 1) (ite (= ((_ extract 0 0) (|bitwise#29| state)) #b1) #b0 #b1)) ; $procmux$72_Y
(define-fun |bitwise#34| ((state |bitwise_s|)) (_ BitVec 1) (ite (|bitwise#2| state) #b0 (|bitwise#33| state))) ; $procmux$75_Y
(define-fun |bitwise#35| ((state |bitwise_s|)) (_ BitVec 1) (ite (|bitwise#0| state) #b0 (|bitwise#34| state))) ; $0$formal$bitwise.v:44$4_EN[0:0]$16
(define-fun |bitwise#36| ((state |bitwise_s|)) Bool (= (|bitwise#1| state) (|bitwise#3| state))) ; $eq$bitwise.v:39$18_Y
(define-fun |bitwise#37| ((state |bitwise_s|)) (_ BitVec 1) (ite (|bitwise#2| state) (ite (|bitwise#36| state) #b1 #b0) (|bitwise#14| state))) ; $procmux$48_Y
(define-fun |bitwise#38| ((state |bitwise_s|)) (_ BitVec 1) (ite (|bitwise#0| state) (|bitwise#13| state) (|bitwise#37| state))) ; $0$formal$bitwise.v:38$2_CHECK[0:0]$11
(define-fun |bitwise#39| ((state |bitwise_s|)) Bool (= (|bitwise#1| state) (concat ((_ extract 6 0) (|bitwise#1| state)) (ite (|bitwise#5| state) #b1 #b0)))) ; $eq$bitwise.v:42$21_Y
(define-fun |bitwise#40| ((state |bitwise_s|)) (_ BitVec 1) (ite (= ((_ extract 0 0) (|bitwise#29| state)) #b1) (ite (|bitwise#39| state) #b1 #b0) (|bitwise#12| state))) ; $procmux$63_Y
(define-fun |bitwise#41| ((state |bitwise_s|)) (_ BitVec 1) (ite (|bitwise#2| state) (|bitwise#11| state) (|bitwise#40| state))) ; $procmux$66_Y
(define-fun |bitwise#42| ((state |bitwise_s|)) (_ BitVec 1) (ite (|bitwise#0| state) (|bitwise#10| state) (|bitwise#41| state))) ; $0$formal$bitwise.v:41$3_CHECK[0:0]$13
(define-fun |bitwise#43| ((state |bitwise_s|)) (_ BitVec 1) (ite (= ((_ extract 0 0) (|bitwise#29| state)) #b1) (|bitwise#9| state) #b1)) ; $procmux$81_Y
(define-fun |bitwise#44| ((state |bitwise_s|)) (_ BitVec 1) (ite (|bitwise#2| state) (|bitwise#8| state) (|bitwise#43| state))) ; $procmux$84_Y
(define-fun |bitwise#45| ((state |bitwise_s|)) (_ BitVec 1) (ite (|bitwise#0| state) (|bitwise#7| state) (|bitwise#44| state))) ; $0$formal$bitwise.v:44$4_CHECK[0:0]$15
(define-fun |bitwise#46| ((state |bitwise_s|)) Bool (not (or  (= ((_ extract 0 0) (|bitwise#1| state)) #b1) (= ((_ extract 1 1) (|bitwise#1| state)) #b1) (= ((_ extract 2 2) (|bitwise#1| state)) #b1) (= ((_ extract 3 3) (|bitwise#1| state)) #b1) (= ((_ extract 4 4) (|bitwise#1| state)) #b1) (= ((_ extract 5 5) (|bitwise#1| state)) #b1) (= ((_ extract 6 6) (|bitwise#1| state)) #b1) (= ((_ extract 7 7) (|bitwise#1| state)) #b1)))) ; $eq$bitwise.v:36$17_Y
(define-fun |bitwise#47| ((state |bitwise_s|)) (_ BitVec 1) (ite (|bitwise#0| state) (ite (|bitwise#46| state) #b1 #b0) (|bitwise#15| state))) ; $0$formal$bitwise.v:35$1_CHECK[0:0]$9
(define-fun |bitwise#48| ((state |bitwise_s|)) Bool (and (or  (= ((_ extract 0 0) (|bitwise#28| state)) #b1) false) (or  (|bitwise#4| state) false))) ; $logic_and$bitwise.v:26$7_Y
(define-fun |bitwise#49| ((state |bitwise_s|)) (_ BitVec 8) (ite (|bitwise#48| state) (concat ((_ extract 6 0) (|bitwise#1| state)) (ite (|bitwise#5| state) #b1 #b0)) (|bitwise#1| state))) ; $procmux$90_Y
(define-fun |bitwise#50| ((state |bitwise_s|)) (_ BitVec 8) (ite (|bitwise#2| state) (|bitwise#3| state) (|bitwise#49| state))) ; $procmux$93_Y
(define-fun |bitwise#51| ((state |bitwise_s|)) (_ BitVec 8) (ite (|bitwise#0| state) #b00000000 (|bitwise#50| state))) ; $0\q[7:0]
(define-fun |bitwise_a| ((state |bitwise_s|)) Bool (and
  (|bitwise_a 0| state)
  (|bitwise_a 1| state)
  (|bitwise_a 2| state)
  (|bitwise_a 3| state)
))
(define-fun |bitwise_u| ((state |bitwise_s|)) Bool 
  (|bitwise_u 0| state)
)
(define-fun |bitwise_i| ((state |bitwise_s|)) Bool (and
  (= (= ((_ extract 0 0) (|bitwise#20| state)) #b1) false) ; $formal$bitwise.v:44$4_EN
  (= (= ((_ extract 0 0) (|bitwise#21| state)) #b1) false) ; $formal$bitwise.v:41$3_EN
  (= (= ((_ extract 0 0) (|bitwise#22| state)) #b1) false) ; $formal$bitwise.v:38$2_EN
  (= (= ((_ extract 0 0) (|bitwise#23| state)) #b1) false) ; $formal$bitwise.v:35$1_EN
))
(define-fun |bitwise_h| ((state |bitwise_s|)) Bool true)
(define-fun |bitwise_t| ((state |bitwise_s|) (next_state |bitwise_s|)) Bool (and
  (= (|bitwise#25| state) (|bitwise#23| next_state)) ; $procdff$99 $formal$bitwise.v:35$1_EN
  (= (|bitwise#27| state) (|bitwise#22| next_state)) ; $procdff$101 $formal$bitwise.v:38$2_EN
  (= (|bitwise#32| state) (|bitwise#21| next_state)) ; $procdff$103 $formal$bitwise.v:41$3_EN
  (= (|bitwise#35| state) (|bitwise#20| next_state)) ; $procdff$105 $formal$bitwise.v:44$4_EN
  (= (|bitwise#38| state) (|bitwise#19| next_state)) ; $procdff$100 \_witness_.anyinit_procdff_100
  (= (|bitwise#42| state) (|bitwise#18| next_state)) ; $procdff$102 \_witness_.anyinit_procdff_102
  (= (|bitwise#45| state) (|bitwise#17| next_state)) ; $procdff$104 \_witness_.anyinit_procdff_104
  (= (|bitwise#47| state) (|bitwise#16| next_state)) ; $procdff$98 \_witness_.anyinit_procdff_98
  (= (|bitwise#51| state) (|bitwise#1| next_state)) ; $procdff$106 \q
)) ; end of module bitwise
; yosys-smt2-topmod bitwise
; end of yosys output
